100
32
22
2
17
18
15
30
16
15
6
7
8
11
21
1
17
2
3
2
5
1
1
3
18
9
5
3
1
2
3
1
17
2
2
2
2
1
17
1
1
17
1
22
2
1
2
18
1
3
17
2
1
5
1
1
2
2
6
17
1
3
3
1
2
2
2
5
1
4
1
3
7
4
1
17
3
1
3
6
2
3
16
2
1
1
3
2
1
2
2
2
1
2
1
19
1
1
1
1
2
2